feasible solution found by trivial heuristic after 0.0 seconds, objective value 7.500000e+01
presolving:
(round 1, fast)       1675 del vars, 279 del conss, 0 add conss, 0 chg bounds, 0 chg sides, 0 chg coeffs, 0 upgd conss, 0 impls, 1897 clqs
   (0.0s) running MILP presolver
   (0.0s) MILP presolver found nothing
(round 2, exhaustive) 1675 del vars, 279 del conss, 0 add conss, 0 chg bounds, 0 chg sides, 0 chg coeffs, 2692 upgd conss, 0 impls, 1897 clqs
(round 3, exhaustive) 1675 del vars, 279 del conss, 0 add conss, 0 chg bounds, 0 chg sides, 0 chg coeffs, 2708 upgd conss, 0 impls, 1897 clqs
   (0.1s) probing: 51/1313 (3.9%) - 0 fixings, 0 aggregations, 0 implications, 0 bound changes
   (0.1s) probing aborted: 50/50 successive totally useless probings
   (0.1s) symmetry computation started: requiring (bin +, int -, cont +), (fixed: bin -, int +, cont -)
   (0.1s) no symmetry present
presolving (4 rounds: 4 fast, 3 medium, 3 exhaustive):
 1675 deleted vars, 279 deleted constraints, 0 added constraints, 0 tightened bounds, 0 added holes, 0 changed sides, 0 changed coefficients
 0 implications, 1897 cliques
presolved problem has 1313 variables (1313 bin, 0 int, 0 impl, 0 cont) and 2708 constraints
   1897 constraints of type <setppc>
    811 constraints of type <logicor>
Presolving Time: 0.06
transformed 1/2 original solutions to the transformed problem space

 time | node  | left  |LP iter|LP it/n|mem/heur|mdpt |vars |cons |rows |cuts |sepa|confs|strbr|  dualbound   | primalbound  |  gap   | compl. 
p 0.1s|     1 |     0 |     0 |     - |  clique|   0 |1313 |2708 |2708 |   0 |  0 |   0 |   0 | 4.385182e+05 | 1.483244e+05 | 195.65%| unknown
p 0.1s|     1 |     0 |     0 |     - |   locks|   0 |1313 |2708 |2708 |   0 |  0 |   0 |   0 | 4.385182e+05 | 1.727513e+05 | 153.84%| unknown
p 0.1s|     1 |     0 |   457 |     - | vbounds|   0 |1313 |2712 |2708 |   0 |  0 |   4 |   0 | 4.385182e+05 | 1.860092e+05 | 135.75%| unknown
i 0.1s|     1 |     0 |   457 |     - |  oneopt|   0 |1313 |2712 |2708 |   0 |  0 |   4 |   0 | 4.385182e+05 | 1.904618e+05 | 130.24%| unknown
  0.2s|     1 |     0 |  1660 |     - |    21M |   0 |1313 |2712 |2708 |   0 |  0 |   4 |   0 | 2.192983e+05 | 1.904618e+05 |  15.14%| unknown
  0.4s|     1 |     0 |  2208 |     - |    23M |   0 |1313 |2713 |2732 |  24 |  1 |   5 |   0 | 2.146658e+05 | 1.904618e+05 |  12.71%| unknown
  0.6s|     1 |     0 |  2824 |     - |    23M |   0 |1313 |2713 |2748 |  40 |  2 |   5 |   0 | 2.121369e+05 | 1.904618e+05 |  11.38%| unknown
  0.9s|     1 |     0 |  3542 |     - |    24M |   0 |1313 |2714 |2762 |  54 |  3 |   6 |   0 | 2.097453e+05 | 1.904618e+05 |  10.12%| unknown
  1.2s|     1 |     0 |  4261 |     - |    26M |   0 |1313 |2715 |2775 |  67 |  4 |   7 |   0 | 2.079104e+05 | 1.904618e+05 |   9.16%| unknown
  1.7s|     1 |     0 |  4756 |     - |    29M |   0 |1313 |2716 |2786 |  78 |  5 |   8 |   0 | 2.061476e+05 | 1.904618e+05 |   8.24%| unknown
  2.3s|     1 |     0 |  5224 |     - |    31M |   0 |1313 |2717 |2797 |  89 |  6 |   9 |   0 | 2.049594e+05 | 1.904618e+05 |   7.61%| unknown
  2.6s|     1 |     0 |  5579 |     - |    34M |   0 |1313 |2717 |2806 |  98 |  7 |   9 |   0 | 2.042787e+05 | 1.904618e+05 |   7.25%| unknown
  3.0s|     1 |     0 |  5711 |     - |    37M |   0 |1313 |2717 |2809 | 101 |  8 |   9 |   0 | 2.041637e+05 | 1.904618e+05 |   7.19%| unknown
  3.5s|     1 |     0 |  5979 |     - |    40M |   0 |1313 |2718 |2815 | 107 |  9 |  10 |   0 | 2.037916e+05 | 1.904618e+05 |   7.00%| unknown
  4.1s|     1 |     0 |  6128 |     - |    44M |   0 |1313 |2718 |2821 | 113 | 10 |  10 |   0 | 2.036210e+05 | 1.904618e+05 |   6.91%| unknown
 time | node  | left  |LP iter|LP it/n|mem/heur|mdpt |vars |cons |rows |cuts |sepa|confs|strbr|  dualbound   | primalbound  |  gap   | compl. 
  4.2s|     1 |     0 |  6303 |     - |    44M |   0 |1313 |2718 |2826 | 118 | 11 |  10 |   0 | 2.035084e+05 | 1.904618e+05 |   6.85%| unknown
  4.3s|     1 |     0 |  6415 |     - |    44M |   0 |1313 |2719 |2829 | 121 | 12 |  11 |   0 | 2.034427e+05 | 1.904618e+05 |   6.82%| unknown
  4.3s|     1 |     0 |  6466 |     - |    45M |   0 |1313 |2720 |2831 | 123 | 13 |  12 |   0 | 2.034269e+05 | 1.904618e+05 |   6.81%| unknown
  4.4s|     1 |     0 |  6503 |     - |    45M |   0 |1313 |2721 |2832 | 124 | 14 |  13 |   0 | 2.034117e+05 | 1.904618e+05 |   6.80%| unknown
  4.5s|     1 |     0 |  6657 |     - |    46M |   0 |1313 |2721 |2836 | 128 | 15 |  13 |   0 | 2.033475e+05 | 1.904618e+05 |   6.77%| unknown
  4.6s|     1 |     0 |  6807 |     - |    46M |   0 |1313 |2722 |2833 | 135 | 16 |  14 |   0 | 2.032793e+05 | 1.904618e+05 |   6.73%| unknown
  4.7s|     1 |     0 |  6935 |     - |    47M |   0 |1313 |2723 |2838 | 140 | 17 |  15 |   0 | 2.032430e+05 | 1.904618e+05 |   6.71%| unknown
  4.8s|     1 |     0 |  7022 |     - |    47M |   0 |1313 |2724 |2841 | 143 | 18 |  16 |   0 | 2.032206e+05 | 1.904618e+05 |   6.70%| unknown
  4.9s|     1 |     0 |  7077 |     - |    47M |   0 |1313 |2725 |2843 | 145 | 19 |  17 |   0 | 2.032036e+05 | 1.904618e+05 |   6.69%| unknown
  5.0s|     1 |     0 |  7266 |     - |    48M |   0 |1313 |2726 |2844 | 146 | 20 |  18 |   0 | 2.030995e+05 | 1.904618e+05 |   6.64%| unknown
L13.2s|     1 |     0 | 12591 |     - |    rens|   0 |1313 |2767 |2844 | 146 | 22 |  59 |   0 | 2.030995e+05 | 1.966204e+05 |   3.30%| unknown
 13.2s|     1 |     0 | 12591 |     - |    48M |   0 |1313 |2767 |2844 | 146 | 22 |  59 |   0 | 2.030995e+05 | 1.966204e+05 |   3.30%| unknown
 13.2s|     1 |     0 | 12603 |     - |    48M |   0 |1313 |2767 |2845 | 147 | 23 |  59 |   0 | 2.030987e+05 | 1.966204e+05 |   3.29%| unknown
 13.3s|     1 |     0 | 12621 |     - |    48M |   0 |1313 |2768 |2846 | 148 | 24 |  60 |   0 | 2.030973e+05 | 1.966204e+05 |   3.29%| unknown
 16.2s|     1 |     2 | 12621 |     - |    48M |   0 |1313 |2769 |2846 | 148 | 24 |  61 |  23 | 2.024133e+05 | 1.966204e+05 |   2.95%| unknown
 time | node  | left  |LP iter|LP it/n|mem/heur|mdpt |vars |cons |rows |cuts |sepa|confs|strbr|  dualbound   | primalbound  |  gap   | compl. 
 43.2s|   100 |     7 | 38758 | 322.4 |    65M |  12 |1313 |2803 |2853 | 240 |  1 |  95 | 326 | 2.009585e+05 | 1.966204e+05 |   2.21%|  50.26%
r46.2s|   147 |    10 | 47942 | 281.5 |ziroundi|  14 |1313 |2804 |2850 | 276 |  1 |  96 | 326 | 2.000105e+05 | 1.966259e+05 |   1.72%|  60.67%

SCIP Status        : problem is solved [optimal solution found]
Solving Time (sec) : 53.94
Solving Nodes      : 197
Primal Bound       : +1.96625852167174e+05 (108 solutions)
Dual Bound         : +1.96625852167174e+05
Gap                : 0.00 %
Solve Status: optimal
Solve Time: 53.95 seconds
